(set-logic ALL)
(declare-const x String)
(declare-const y String)
(assert (str.in_re x (re.+ (re.++ (str.to_re "t") (re.* (str.to_re ""))))))
(assert (= (str.len x) 2))
(assert (not (= x "tt")))
(assert (not (= x "tCV")))
(check-sat)
